set Nodes := 1 2 3 4 5 6 7;

param s := 1;

param t := 7;

set Arcs := (1,2) 
(1,3) (3,2) (2,4) (2,5) (5,3) 
(3,6) (4,5) (5,7) (4,7) (6,7) (6,5);

param cap:=

1 2	5
1 3	6
3 2	2
2 4	5
2 5	8
5 3	1
3 6	9
4 5	8
5 7	5
4 7 	2
6 7	1
6 5	6;

